####################################################################### 
# 
# This file contains crystal structure data downloaded from the 
# Cambridge Structural Database (CSD) hosted by the Cambridge 
# Crystallographic Data Centre (CCDC).
# 
# Full information about CCDC data access policies and citation 
# guidelines are available at http://www.ccdc.cam.ac.uk/access/V1 
# 
# Audit and citation data items may have been added by the CCDC. 
# Please retain this information to preserve the provenance of 
# this file and to allow appropriate attribution of the data. 
# 
#######################################################################

data_CBMZPN03
#This CIF has been generated from an entry in the Cambridge Structural Database
_database_code_depnum_ccdc_archive 'CCDC 1121423'
_database_code_CSD               CBMZPN03
loop_
_citation_id
_citation_doi
_citation_year
1 10.1002/jps.2600760914 1987
_audit_creation_method           'Created from the CSD'
_audit_update_record             
;
2019-05-31 downloaded from the CCDC.
;
_database_code_NBS               586323
_chemical_name_common            Carbamazepine
_chemical_formula_moiety         'C15 H12 N2 O1'
_chemical_name_systematic        5H-Dibenz(b,f)azepine-5-carboxamide
_chemical_properties_biological  
'analgesic, antiepileptic, anticonvulsant, bipolar disorder treatment, trigeminal neuralgia treatment, known auditory pitch lowering effect'
_chemical_absolute_configuration unk
_diffrn_ambient_temperature      295
_exptl_crystal_density_diffrn    1.235
#These two values have been output from a single CSD field.
_refine_ls_R_factor_gt           0.069
_refine_ls_wR_factor_gt          0.069
_diffrn_radiation_probe          x-ray
_symmetry_cell_setting           rhombohedral
_symmetry_space_group_name_H-M   'R -3'
_symmetry_Int_Tables_number      148
_space_group_name_Hall           '-R 3'
loop_
_symmetry_equiv_pos_site_id
_symmetry_equiv_pos_as_xyz
1 x,y,z
2 1/3+x,2/3+y,2/3+z
3 2/3+x,1/3+y,1/3+z
4 -y,x-y,z
5 -x+y,-x,z
6 1/3-y,2/3+x-y,2/3+z
7 1/3-x+y,2/3-x,2/3+z
8 2/3-y,1/3+x-y,1/3+z
9 2/3-x+y,1/3-x,1/3+z
10 -x,-y,-z
11 2/3-x,1/3-y,1/3-z
12 1/3-x,2/3-y,2/3-z
13 y,-x+y,-z
14 x-y,x,-z
15 2/3+y,1/3-x+y,1/3-z
16 2/3+x-y,1/3+x,1/3-z
17 1/3+y,2/3-x+y,2/3-z
18 1/3+x-y,2/3+x,2/3-z
_cell_length_a                   35.454(3)
_cell_length_b                   35.454(3)
_cell_length_c                   5.253(1)
_cell_angle_alpha                90
_cell_angle_beta                 90
_cell_angle_gamma                120
_cell_volume                     5718.32
_cell_formula_units_Z            18
loop_
_atom_site_label
_atom_site_type_symbol
_atom_site_fract_x
_atom_site_fract_y
_atom_site_fract_z
C1 C 0.2615(1) 0.2085(1) 0.1922(4)
C2 C 0.2875(1) 0.2350(1) -0.0033(5)
C3 C 0.2893(1) 0.2744(1) -0.0512(6)
C4 C 0.2654(1) 0.2872(1) 0.0978(6)
C5 C 0.2398(1) 0.2611(1) 0.2902(7)
C6 C 0.2364(1) 0.2205(1) 0.3401(5)
C7 C 0.2062(1) 0.1918(1) 0.5357(6)
C8 C 0.1833(1) 0.1480(1) 0.5315(6)
C9 C 0.1835(1) 0.1195(1) 0.3342(6)
C10 C 0.1453(1) 0.0808(1) 0.2823(9)
C11 C 0.1441(2) 0.0532(1) 0.0936(9)
C12 C 0.1810(2) 0.0631(1) -0.0475(8)
C13 C 0.2190(1) 0.1018(1) 0.0005(7)
C14 C 0.2201(1) 0.1292(1) 0.1894(5)
C15 C 0.2922(1) 0.1689(1) 0.3977(4)
N1 N 0.2603(1) 0.1681(1) 0.2443(4)
N2 N 0.2882(1) 0.1298(1) 0.4539(6)
O1 O 0.3227(1) 0.2037(1) 0.4786(4)

#END
